single_objective/SL-DABL/OP/problems/op/OPLib-master/solutions/ea4op/gen1/eil76-gen1-50.sol
NAME : eil76
TYPE : OP
DIMENSION : 76
COST_LIMIT : 269
ROUTE_NODES : 46
ROUTE_SCORE : 46
ROUTE_COST : 269
NODE_SEQUENCE_SECTION
1
73
33
63
16
3
44
32
9
39
72
58
10
38
65
11
53
35
8
46
34
52
27
57
15
37
20
70
60
71
36
47
48
29
45
4
75
76
17
51
6
68
2
74
28
62
-1
DEPOT_SECTION
1
-1
EOF
